Total weight: 1145.2726577815247
Route 1: 0 94 95 92 37 98 93 59 97 13 0 
Route 2: 0 7 19 11 66 9 81 3 77 0 
Route 3: 0 53 26 4 56 22 41 0 
Route 4: 0 69 1 51 33 79 29 24 55 25 54 12 0 
Route 5: 0 70 30 20 32 90 63 64 49 36 47 0 
Route 6: 0 2 57 15 43 42 87 0 
Route 7: 0 100 44 14 38 86 17 46 48 82 52 0 
Route 8: 0 89 60 83 45 8 18 58 21 40 0 
Route 9: 0 27 31 10 62 88 0 
Route 10: 0 76 68 80 67 39 23 75 74 72 73 0 
Route 11: 0 28 50 78 34 35 65 71 0 
Route 12: 0 6 96 99 85 91 16 61 84 5 0 
